# Solution for model p01_budget_0p540
# Objective value = 5.4000000000006310e-01
Risk 5.4000000000006310e-01
0 0
1 0
3 0.001
4 30.001
5 3.0002000000000002e+01
6 40.002
7 3.3521616252817410e+01
9 7.1468927897248932e+01
c(0,1)_Rl 0.001
c(0,1)_Ru 0
c(0,3)_Rl 0
c(0,3)_Ru 0
c(3,4)_Rl 0
c(3,4)_Ru 0
c(4,5)_Rl 0
c(4,5)_Ru 0
c(3,5)_Rl 0
c(3,5)_Ru 0
c(1,2)_l 0
c(1,2)_u 3.3520616252817412e+01
c(2,7)_Fl 0
c(2,7)_Fu 3.1703026861461847e-01
c(1,7)_Rl 0
c(1,7)_Ru 0
c(5,6)_Rl 0
c(5,6)_Ru 0
c(3,6)_Rl 0
c(3,6)_Ru 0
c(7,8)_l 0
c(7,8)_u 3.7946311644431518e+01
c(1,8)_Fl 0
c(1,8)_Fu 1.1148486569272231e-01
c(0,9)_Rl 0
c(0,9)_Ru 3.5468327897248933e+01
c(8,9)_Fl 0
c(8,9)_Fu 1.1148486569272231e-01
c(6,9)_Rl 0
c(6,9)_Ru 0
Cost 3.5469327897248931e+01
